(set-option :produce-models true)
(set-logic QF_UF)
(declare-fun p8() Bool)
(declare-fun p0() Bool)
(declare-fun p12() Bool)
(declare-fun p13() Bool)
(declare-fun p17() Bool)
(declare-fun p11() Bool)
(declare-fun p16() Bool)
(declare-fun p19() Bool)
(declare-fun p37() Bool)
(declare-fun p31() Bool)
(declare-fun p6() Bool)
(declare-fun p3() Bool)
(declare-fun p10() Bool)
(declare-fun p2() Bool)
(declare-fun p14() Bool)
(declare-fun p25() Bool)
(declare-fun p39() Bool)
(declare-fun p9() Bool)
(declare-fun p4() Bool)
(declare-fun p1() Bool)
(declare-fun p27() Bool)
(declare-fun p22() Bool)
(declare-fun p36() Bool)
(declare-fun p24() Bool)
(declare-fun p5() Bool)
(declare-fun p7() Bool)
(declare-fun p18() Bool)
(declare-fun p30() Bool)
(declare-fun p29() Bool)
(declare-fun p33() Bool)
(declare-fun p35() Bool)
(declare-fun p38() Bool)
(declare-fun p26() Bool)
(declare-fun p23() Bool)
(declare-fun p28() Bool)
(declare-fun p15() Bool)
(declare-fun p34() Bool)
(declare-fun p20() Bool)
(declare-fun p21() Bool)
(declare-fun p32() Bool)
(assert
(and (or p8 p0 (not p12)) (or p13 (not p17) (not p11)) (or p16 (not p19) p37) (or p12 p13 (not p31)) (or (not p6) (not p3) p10) (or (not p2) p14 p10) (or p14 p25 (not p39)) (or (not p9) (not p4) (not p1)) (or p2 (not p14) p3) (or p27 p22 (not p39)) (or p14 (not p36) (not p24)) (or (not p5) (not p13) p2) (or p31 p7 (not p18)) (or p0 (not p11) p37) (or p30 p18 p29) (or (not p36) p33 (not p14)) (or p35 p13 p10) (or p10 (not p22) (not p8)) (or p27 (not p22) (not p36)) (or (not p9) p36 p38) (or (not p37) p26 (not p24)) (or p24 p16 (not p12)) (or (not p23) (not p35) p25) (or p27 p11 p30) (or (not p19) (not p33) p27) (or (not p10) (not p4) (not p17)) (or p28 (not p33) p12) (or p36 p4 p9) (or (not p2) (not p4) p15) (or (not p29) p35 p29) (or (not p38) (not p8) p31) (or p39 (not p18) p4) (or (not p39) (not p29) (not p39)) (or (not p12) (not p28) (not p13)) (or p7 p11 p5) (or (not p12) p18 (not p4)) (or p27 (not p6) p33) (or p7 p39 (not p25)) (or (not p11) (not p12) (not p13)) (or (not p18) (not p23) (not p38)) (or (not p11) p3 (not p28)) (or (not p35) p37 (not p3)) (or p2 (not p6) (not p36)) (or (not p25) p39 p34) (or (not p38) (not p5) p4) (or p30 p30 p35) (or (not p5) (not p16) p26) (or (not p34) (not p24) (not p19)) (or (not p24) (not p17) p38) (or p29 (not p0) p34) (or (not p10) (not p29) p37) (or p20 p34 p15) (or p27 (not p30) p24) (or (not p12) (not p16) p17) (or (not p1) (not p25) p33) (or (not p12) p34 p31) (or (not p22) p21 (not p24)) (or p16 (not p32) (not p5)) (or (not p32) p38 p0) (or p1 (not p0) (not p2)) (or p22 (not p9) (not p37)) (or (not p28) (not p27) p18) (or p11 p5 (not p13)) (or p18 p13 (not p27)) (or p26 (not p15) (not p19)) (or (not p22) p24 p25) (or (not p12) p24 (not p36)) (or (not p5) (not p13) p12) (or (not p10) (not p9) (not p8)) (or (not p21) p2 p22) (or p25 p37 (not p13)) (or (not p30) (not p21) p22) (or p32 (not p12) p4) (or (not p34) p16 p35) (or (not p21) (not p21) p7) (or (not p17) p24 p7) (or (not p31) (not p9) p5) (or (not p16) (not p15) p10) (or p30 p34 (not p8)) (or (not p28) (not p28) p0) (or p31 p16 p9) (or (not p17) p17 (not p3)) (or p12 p0 p2) (or (not p37) (not p11) (not p25)) (or (not p27) (not p24) p37) (or (not p38) p9 (not p19)) (or p27 p11 p1) (or (not p5) p1 p26) (or (not p35) p26 (not p34)) (or (not p26) p13 p36) (or p15 p14 p24) (or (not p31) p26 (not p32)) (or p3 p20 p0) (or (not p20) p31 p15) (or (not p38) (not p36) (not p3)) (or (not p7) p28 (not p32)) (or p4 p35 p11) (or p31 (not p9) (not p26)) (or (not p27) (not p23) (not p30)) (or p10 (not p24) p3) (or p33 p9 p18) (or p39 p20 p15) (or (not p14) p6 (not p20)) (or (not p31) (not p24) (not p24)) (or (not p3) (not p13) (not p23)) (or (not p11) p12 (not p27)) (or p24 p13 (not p3)) (or (not p32) (not p6) (not p0)) (or p22 (not p9) p1) (or p33 p1 p24) (or (not p3) (not p21) (not p36)) (or p0 p9 p33) (or (not p4) p7 (not p5)) (or p2 p13 (not p0)) (or (not p32) p26 (not p16)) (or (not p1) (not p36) p9) (or (not p16) p36 p12) (or (not p19) (not p31) p21) (or (not p25) p20 p22) (or p2 p28 p4) (or p3 p22 (not p14)) (or (not p12) (not p25) (not p1)) (or (not p14) (not p13) p16) (or p18 (not p6) p13) (or (not p4) (not p25) p4) (or (not p9) (not p35) p39) (or (not p5) p1 p20) (or (not p28) p19 (not p15)) (or p19 p19 p3) (or p11 (not p35) p13) (or p17 (not p4) (not p39)) (or p16 (not p0) (not p30)) (or (not p28) p33 (not p13)) (or (not p34) p0 p15) (or (not p5) (not p13) (not p37)) (or (not p27) p7 p30) (or (not p8) (not p34) (not p10)) (or (not p9) p19 p24) (or (not p25) (not p34) (not p14)) (or (not p3) (not p27) (not p30)) (or (not p7) p33 (not p12)) (or (not p37) (not p18) p39) (or (not p18) (not p36) (not p10)) (or (not p25) p36 (not p25)) (or (not p19) p8 p24) (or (not p20) (not p1) p19) (or (not p32) p33 p27) (or (not p12) p7 p17) (or p7 (not p39) (not p33)) (or p14 p5 p37) (or p24 (not p32) (not p19)) (or (not p7) p8 (not p1)) (or (not p37) p35 (not p39)) (or p18 (not p39) (not p9)) (or (not p9) p15 p36) (or (not p8) p7 p15) (or (not p21) p35 p21) (or p32 (not p2) (not p8)) (or (not p10) (not p32) p13) (or p37 p29 p19) (or p17 p29 (not p0)) (or (not p14) (not p27) (not p37)) (or (not p26) p3 p20) (or (not p3) p33 (not p8)) (or p5 (not p14) (not p27)) (or (not p25) (not p11) p25) (or (not p25) (not p14) (not p29)) (or p20 (not p35) p4) (or (not p37) p39 (not p32)) (or (not p33) p27 p13) (or (not p20) p31 p2))
)
(check-sat)
(get-model)
